cost: 1144.07
Route 1:           0    7    6   35   45   20    0
Route 2:           0   12    9   41   13   10   17   25   18    0
Route 3:           0   15   46   23   22    5   14    0
Route 4:           0   24   21    2   39   31    0
Route 5:           0   27   30   36   19   11    8    4    0
Route 6:           0   33   26   28   43    0
Route 7:           0   37   32   40    0
Route 8:           0   44   29   38   34   48    1   50    0
Route 9:           0   49   16    3   47   42    0
